\* Simple_LP_Problem *\
Minimize
objective_function: 1113.3880276 x0 + 1113.3880276 x1 + 1113.3880276 x2
 + 1113.3880276 x3 + 4039.08814733 x4 + 4039.08814733 x5 + 4039.08814733 x6
 + 4039.08814733 x7
Subject To
_C1: 2500 x0 + 1500 x1 + 1000 x2 + 1500 x4 + 1000 x5 + 500 x6 + 500 x7
 + 1150 x8 = 8228
Bounds
 x0 <= 1
 x1 <= 1
 x2 <= 1
 x3 <= 1
 x4 <= 1
 0.75 <= x5 <= 1
 x6 <= 1
 x7 <= 1
 x8 <= 1
End
